c This is QMaxSAT 2017 based on 14.07
c This is Glucose 3.0
c This is MiniSat 2.2.0
c WARNING: for repeatability, setting FPU to use double precision
c card = mrwto, comp = 0, pmodel = 0, narr = 12, mct = 76, verb = 0
cr firstCPXsol 0 0 0
c top = 189219
c |  Number of variables:    15138                                            |
c |  Number of clauses:      1184199                                          |
c |  Weight of hard clauses: 189219                                           |
c |  Number of soft clauses: 88200                                            |
c |  Number of unit soft clauses: 0                                           |
c |  Maximum Cardinality (by unit): 2895240      (0           )               |
c last restart ## conflicts  :  0 636 
o 349 | cpuTime 0.138242 s
c Sum of weights = 241270
c A number of soft clauses remained = 7350
c MRWTO encoding for Pseudo-Boolean Constraints
c sizeMax=349
c No.0 Divisor=8	generated by pow1
c No.1 Divisor=8	generated by pow1
c No.2 Divisor=8	generated by pow1
c p0= 8	p1= 8	p2= 8	
c number of digits = 4
c linkingVar[0].size = 8, linkingVar[1].size = 8, linkingVar[2].size = 6, linkingVar[3].size = 1, 
c Pseudo-Boolean Constraints: 115795 variables and 767396 clauses
c Sum of weights = 241270
c A number of soft clauses remained = 7350
c MRWTO encoding for Pseudo-Boolean Constraints
c sizeMax=349
c No.0 Divisor=8	generated by pow1
c No.1 Divisor=8	generated by pow1
c No.2 Divisor=8	generated by pow1
c p0= 8	p1= 8	p2= 8	
c number of digits = 4
c linkingVar[0].size = 8, linkingVar[1].size = 8, linkingVar[2].size = 6, linkingVar[3].size = 1, 
c Pseudo-Boolean Constraints: 115795 variables and 767396 clauses
c Sum of weights = 241270
c A number of soft clauses remained = 7350
c MRWTO encoding for Pseudo-Boolean Constraints
c sizeMax=349
c No.0 Divisor=8	generated by pow1
c No.1 Divisor=8	generated by pow1
c No.2 Divisor=8	generated by pow1
c p0= 8	p1= 8	p2= 8	
c number of digits = 4
c linkingVar[0].size = 8, linkingVar[1].size = 8, linkingVar[2].size = 6, linkingVar[3].size = 1, 
c Pseudo-Boolean Constraints: 115795 variables and 767396 clauses
c Sum of weights = 241270
c A number of soft clauses remained = 7350
c MRWTO encoding for Pseudo-Boolean Constraints
c sizeMax=349
c No.0 Divisor=8	generated by pow1
c No.1 Divisor=8	generated by pow1
c No.2 Divisor=8	generated by pow1
c p0= 8	p1= 8	p2= 8	
c number of digits = 4
c linkingVar[0].size = 8, linkingVar[1].size = 8, linkingVar[2].size = 6, linkingVar[3].size = 1, 
c Pseudo-Boolean Constraints: 115795 variables and 767396 clauses
c Sum of weights = 241270
c A number of soft clauses remained = 7350
c MRWTO encoding for Pseudo-Boolean Constraints
c sizeMax=349
c No.0 Divisor=8	generated by pow1
c No.1 Divisor=8	generated by pow1
c No.2 Divisor=8	generated by pow1
c p0= 8	p1= 8	p2= 8	
c number of digits = 4
c linkingVar[0].size = 8, linkingVar[1].size = 8, linkingVar[2].size = 6, linkingVar[3].size = 1, 
c Pseudo-Boolean Constraints: 115795 variables and 767396 clauses
c Sum of weights = 241270
c A number of soft clauses remained = 7350
c MRWTO encoding for Pseudo-Boolean Constraints
c sizeMax=349
c No.0 Divisor=8	generated by pow1
c No.1 Divisor=8	generated by pow1
c No.2 Divisor=8	generated by pow1
c p0= 8	p1= 8	p2= 8	
c number of digits = 4
c linkingVar[0].size = 8, linkingVar[1].size = 8, linkingVar[2].size = 6, linkingVar[3].size = 1, 
c Pseudo-Boolean Constraints: 115795 variables and 767396 clauses
c Sum of weights = 241270
c A number of soft clauses remained = 7350
c MRWTO encoding for Pseudo-Boolean Constraints
c sizeMax=349
c No.0 Divisor=8	generated by pow1
c No.1 Divisor=8	generated by pow1
c No.2 Divisor=8	generated by pow1
c p0= 8	p1= 8	p2= 8	
c number of digits = 4
c linkingVar[0].size = 8, linkingVar[1].size = 8, linkingVar[2].size = 6, linkingVar[3].size = 1, 
c Pseudo-Boolean Constraints: 115795 variables and 767396 clauses
c Sum of weights = 241270
c A number of soft clauses remained = 7350
c MRWTO encoding for Pseudo-Boolean Constraints
c sizeMax=349
c No.0 Divisor=8	generated by pow1
c No.1 Divisor=8	generated by pow1
c No.2 Divisor=8	generated by pow1
c p0= 8	p1= 8	p2= 8	
c number of digits = 4
c linkingVar[0].size = 8, linkingVar[1].size = 8, linkingVar[2].size = 6, linkingVar[3].size = 1, 
c Pseudo-Boolean Constraints: 115795 variables and 767396 clauses
c Sum of weights = 241270
c A number of soft clauses remained = 7350
c MRWTO encoding for Pseudo-Boolean Constraints
c sizeMax=349
c No.0 Divisor=8	generated by pow1
c No.1 Divisor=8	generated by pow1
c No.2 Divisor=8	generated by pow1
c p0= 8	p1= 8	p2= 8	
c number of digits = 4
c linkingVar[0].size = 8, linkingVar[1].size = 8, linkingVar[2].size = 6, linkingVar[3].size = 1, 
c Pseudo-Boolean Constraints: 115795 variables and 767396 clauses
c Sum of weights = 241270
c A number of soft clauses remained = 7350
c MRWTO encoding for Pseudo-Boolean Constraints
c sizeMax=349
c No.0 Divisor=8	generated by pow1
c No.1 Divisor=8	generated by pow1
c No.2 Divisor=8	generated by pow1
c p0= 8	p1= 8	p2= 8	
c number of digits = 4
c linkingVar[0].size = 8, linkingVar[1].size = 8, linkingVar[2].size = 6, linkingVar[3].size = 1, 
c Pseudo-Boolean Constraints: 115795 variables and 767396 clauses
c Sum of weights = 241270
c A number of soft clauses remained = 7350
c MRWTO encoding for Pseudo-Boolean Constraints
c sizeMax=349
c No.0 Divisor=8	generated by pow1
c No.1 Divisor=8	generated by pow1
c No.2 Divisor=8	generated by pow1
c p0= 8	p1= 8	p2= 8	
c number of digits = 4
c linkingVar[0].size = 8, linkingVar[1].size = 8, linkingVar[2].size = 6, linkingVar[3].size = 1, 
c Pseudo-Boolean Constraints: 115795 variables and 767396 clauses
c Sum of weights = 241270
c A number of soft clauses remained = 7350
c MRWTO encoding for Pseudo-Boolean Constraints
c sizeMax=349
c No.0 Divisor=8	generated by pow1
c No.1 Divisor=8	generated by pow1
c No.2 Divisor=8	generated by pow1
c p0= 8	p1= 8	p2= 8	
c number of digits = 4
c linkingVar[0].size = 8, linkingVar[1].size = 8, linkingVar[2].size = 6, linkingVar[3].size = 1, 
c Pseudo-Boolean Constraints: 115795 variables and 767396 clauses
c last restart ## conflicts  :  295 15959 
o 309 | cpuTime 273.606 s
c last restart ## conflicts  :  702 13271 
o 297 | cpuTime 619.164 s
c last restart ## conflicts  :  338 32350 
o 290 | cpuTime 1920.18 s
s UNKNOWN
c Search is stopped by a limit (maybe time-limit)
cr positiVarArr: [ | 58(1->47) | 174(1->76) | 214(1->29) | 305(1->33) | 413(1->54) | 489(1->43) | 552(1->19) | 671(1->51) | 782(1->75) | 819(1->25) | 922(1->41) | 996(1->28) | 1061(2->6) | 1135(3->1) | 1223(4->1) | 1331(5->15) | 1471(6->68) | 1528(7->38) | 1584(8->7) | 1682(9->18) | 1785(10->34) | 1873(11->35) | 1964(12->39) | 2012(13->1) | 2164(14->65) | 2206(15->20) | 2315(16->42) | 2370(17->10) | 2491(18->44) | 2547(19->13) | 2670(20->49) | 2705(21->1) | 2793(22->1) | 2883(23->1) | 2968(24->1) | 3088(25->32) | 3212(26->69) | 3290(27->60) | 3379(28->62) | 3434(29->30) | 3536(30->45) | 3636(31->58) | 3691(32->26) | 3768(33->16) | 3885(34->46) | 3935(35->9) | 4003(36->1) | 4157(37->57) | 4198(38->11) | 4276(39->2) | 4416(40->55) | 4472(41->24) | 4575(42->40) | 4688(43->66) | 4721(44->12) | 4857(45->61) | 4891(46->8) | 5001(47->31) | 5078(48->21) | 5136(49->1) | 5287(50->56) | 5332(51->14) | 5442(52->37) | 5528(53->36) | 5638(54->59) | 5729(55->63) | 5817(56->64) | 5910(57->70) | 5999(58->72) | 6081(59->67) | 6175(60->74) | 6259(61->71) | 6297(62->22) | 6410(63->48) | 6452(64->3) | 6589(65->53) | 6628(66->5) | 6701(67->1) | 6870(68->73) | 6888(69->4) | 6994(70->23) | 7108(71->50) | 7141(72->1) | 7227(73->1) | 7371(74->52) | 7423(75->17) | 7520(76->27) | ]
cr the 1-th chain: [ 1->47->31->58->72->1 ] (#non-depot=4) {#cumul.=5}
cr the 2-th chain: [ 1->76->27->60->74->52->37->57->70->23->1 ] (#non-depot=9) {#cumul.=14}
cr the 3-th chain: [ 1->29->30->45->61->71->50->56->64->3->1 ] (#non-depot=9) {#cumul.=23}
cr the 4-th chain: [ 1->33->16->42->40->55->63->48->21->1 ] (#non-depot=8) {#cumul.=31}
cr the 5-th chain: [ 1->54->59->67->1 ] (#non-depot=3) {#cumul.=34}
cr the 6-th chain: [ 1->43->66->5->15->20->49->1 ] (#non-depot=6) {#cumul.=40}
cr the 7-th chain: [ 1->19->13->1 ] (#non-depot=2) {#cumul.=42}
cr the 8-th chain: [ 1->51->14->65->53->36->1 ] (#non-depot=5) {#cumul.=47}
cr the 9-th chain: [ 1->75->17->10->34->46->8->7->38->11->35->9->18->44->12->39->2->6->68->73->1 ] (#non-depot=19) {#cumul.=66}
cr the 10-th chain: [ 1->25->32->26->69->4->1 ] (#non-depot=5) {#cumul.=71}
cr the 11-th chain: [ 1->41->24->1 ] (#non-depot=2) {#cumul.=73}
cr the 12-th chain: [ 1->28->62->22->1 ] (#non-depot=3) {#cumul.=76}
c Latest Answer = 0 by 4 loops
c restarts              : 34659
c conflicts             : 5635308        (1567 /sec)
c decisions             : 139839853      (0.00 % random) (38887 /sec)
c propagations          : 38826594885    (10796881 /sec)
c conflict literals     : 673602192      (34.69 % deleted)
c Memory used           : 1476.00 MB
c CPU time              : 3596.09 s
